VERTICES = 80
EDGES = 346
1 2
1 4
1 17
1 19
2 3
2 16
2 18
3 6
3 12
3 17
3 21
3 27
4 5
4 12
4 16
4 20
4 27
5 8
5 13
5 19
5 23
5 28
6 7
6 13
6 18
6 22
6 28
7 10
7 14
7 21
7 25
7 29
8 9
8 14
8 20
8 24
8 29
9 11
9 15
9 23
9 26
9 30
10 11
10 15
10 22
10 26
10 30
11 12
11 13
11 14
11 15
11 24
11 25
11 27
11 28
11 29
11 30
12 13
12 14
12 15
12 18
12 19
12 26
12 28
12 29
12 30
13 14
13 15
13 20
13 21
13 26
13 27
13 29
13 30
14 15
14 22
14 23
14 26
14 27
14 28
14 30
15 24
15 25
15 26
15 27
15 28
15 29
16 32
16 34
16 77
17 31
17 33
17 77
18 32
18 36
18 42
18 77
19 31
19 35
19 42
19 77
20 34
20 38
20 43
20 77
21 33
21 37
21 43
21 77
22 36
22 40
22 44
22 77
23 35
23 39
23 44
23 77
24 38
24 41
24 45
24 77
25 37
25 41
25 45
25 77
26 39
26 40
26 42
26 43
26 44
26 45
26 77
27 33
27 34
27 41
27 43
27 44
27 45
27 77
28 35
28 36
28 41
28 42
28 44
28 45
28 77
29 37
29 38
29 41
29 42
29 43
29 45
29 77
30 39
30 40
30 41
30 42
30 43
30 44
30 77
31 47
31 49
31 78
32 46
32 48
32 78
33 47
33 51
33 57
33 78
34 46
34 50
34 57
34 78
35 49
35 53
35 58
35 78
36 48
36 52
36 58
36 78
37 51
37 55
37 59
37 78
38 50
38 54
38 59
38 78
39 53
39 56
39 60
39 78
40 52
40 56
40 60
40 78
41 54
41 55
41 57
41 58
41 59
41 60
41 78
42 48
42 49
42 56
42 58
42 59
42 60
42 78
43 50
43 51
43 56
43 57
43 59
43 60
43 78
44 52
44 53
44 56
44 57
44 58
44 60
44 78
45 54
45 55
45 56
45 57
45 58
45 59
45 78
46 62
46 64
46 79
47 61
47 63
47 79
48 62
48 66
48 72
48 79
49 61
49 65
49 72
49 79
50 64
50 68
50 73
50 79
51 63
51 67
51 73
51 79
52 66
52 70
52 74
52 79
53 65
53 69
53 74
53 79
54 68
54 71
54 75
54 79
55 67
55 71
55 75
55 79
56 69
56 70
56 72
56 73
56 74
56 75
56 79
57 63
57 64
57 71
57 73
57 74
57 75
57 79
58 65
58 66
58 71
58 72
58 74
58 75
58 79
59 67
59 68
59 71
59 72
59 73
59 75
59 79
60 69
60 70
60 71
60 72
60 73
60 74
60 79
61 76
61 80
62 76
62 80
63 76
63 80
64 76
64 80
65 76
65 80
66 76
66 80
67 76
67 80
68 76
68 80
69 76
69 80
70 76
70 80
71 76
71 80
72 76
72 80
73 76
73 80
74 76
74 80
75 76
75 80
76 77
76 78
76 79
76 80
77 78
77 79
77 80
78 79
78 80
79 80
